NAME : 49usa1097.10465466.tour
COMMENT : Length = 10465466
COMMENT : Found by LKH [Keld Helsgaun] Sat Jun 22 18:43:46 2013
TYPE : TOUR
DIMENSION : 49
TOUR_SECTION
15
271
545
427
44
564
804
388
920
688
186
28
976
629
58
817
1048
299
581
1084
607
873
763
525
365
1067
333
481
352
781
725
998
655
446
471
859
213
662
847
219
458
220
1016
1052
408
891
730
861
274
-1
EOF
